2 41 22 75 74 73 58 
51 71 65 66 20 70 1 
88 
95 92 37 44 14 38 86 16 91 100 98 59 
47 36 46 8 84 17 61 85 93 
28 76 79 78 29 24 68 80 12 
52 7 62 11 64 49 19 48 82 18 89 
97 42 43 15 57 87 13 
53 40 55 25 54 
27 69 30 32 90 63 10 31 
21 72 39 23 67 56 4 26 
60 83 45 5 99 96 6 94 
50 33 81 9 35 34 3 77 
